Geographic Exponential Decay
80 193 150 153 3 186 114 247 242 70 179 306 258 25 266 90 188 163 312 251 21 191 115 184 53 302 36 30 176 151 66 289 117 94 2 98 47 200 299 210 133 280 185 257 272 38 122 118 230 101 175 205 79 149 255 262 49 307 260 131 173 315 106 278 283 281 263 74 310 199 103 42 19 147 48 83 28 124 213 221 12
p edge 320 323
e 0 229 2.0
e 1 232 3.0
e 1 0 3.0
e 2 119 52.0
e 2 282 72.0
e 2 107 80.0
e 2 1 64.0
e 3 161 87.0
e 3 103 31.0
e 3 154 23.0
e 3 2 85.0
e 4 297 2.0
e 4 3 15.0
e 5 12 95.0
e 5 4 4.0
e 6 210 11.0
e 6 5 4.0
e 7 18 2.0
e 7 6 2.0
e 8 169 8.0
e 8 7 1.0
e 9 309 4.0
e 9 8 2.0
e 10 197 1.0
e 10 9 1.0
e 11 273 1.0
e 11 10 1.0
e 12 247 41.0
e 12 269 94.0
e 13 20 1.0
e 13 11 2.0
e 14 101 49.0
e 15 206 5.0
e 15 13 1.0
e 16 294 20.0
e 16 15 2.0
e 17 245 1.0
e 17 16 1.0
e 19 175 82.0
e 19 76 91.0
e 19 174 31.0
e 19 17 21.0
e 21 22 39.0
e 21 129 54.0
e 21 110 24.0
e 21 19 46.0
e 23 71 21.0
e 23 205 1.0
e 23 21 32.0
e 24 200 52.0
e 25 72 93.0
e 25 42 1.0
e 25 303 9.0
e 25 23 88.0
e 26 313 2.0
e 26 25 10.0
e 27 159 50.0
e 27 300 48.0
e 27 26 31.0
e 28 47 21.0
e 28 61 26.0
e 28 68 88.0
e 28 27 12.0
e 29 30 33.0
e 29 28 75.0
e 30 213 73.0
e 30 78 96.0
e 31 224 1.0
e 31 29 2.0
e 32 105 5.0
e 32 31 20.0
e 33 34 1.0
e 33 32 21.0
e 35 99 3.0
e 35 33 11.0
e 36 45 16.0
e 36 37 61.0
e 36 152 48.0
e 36 35 12.0
e 38 301 93.0
e 38 82 47.0
e 38 165 11.0
e 38 36 6.0
e 39 213 73.0
e 39 81 8.0
e 40 111 2.0
e 40 38 40.0
e 41 42 95.0
e 42 156 27.0
e 43 50 1.0
e 43 40 5.0
e 44 142 1.0
e 44 43 1.0
e 46 214 1.0
e 46 44 1.0
e 47 285 47.0
e 47 138 63.0
e 48 49 48.0
e 48 75 48.0
e 48 280 39.0
e 48 46 73.0
e 49 248 74.0
e 49 226 17.0
e 51 86 1.0
e 51 48 4.0
e 52 289 1.0
e 52 51 2.0
e 53 295 45.0
e 53 240 12.0
e 53 54 29.0
e 53 52 72.0
e 55 59 1.0
e 55 53 98.0
e 56 166 5.0
e 56 55 3.0
e 57 221 78.0
e 57 56 5.0
e 58 267 6.0
e 58 57 1.0
e 60 108 1.0
e 60 58 3.0
e 62 160 1.0
e 62 60 2.0
e 63 173 77.0
e 64 93 7.0
e 64 62 12.0
e 65 94 28.0
e 66 227 71.0
e 66 90 98.0
e 66 306 44.0
e 66 64 21.0
e 67 102 1.0
e 67 66 87.0
e 69 231 9.0
e 69 67 3.0
e 70 168 30.0
e 70 213 4.0
e 70 244 94.0
e 73 298 4.0
e 73 69 6.0
e 74 266 54.0
e 74 179 21.0
e 74 77 15.0
e 79 114 18.0
e 79 198 99.0
e 79 281 6.0
e 80 83 46.0
e 83 263 10.0
e 83 84 30.0
e 85 187 2.0
e 85 73 5.0
e 87 88 1.0
e 87 85 5.0
e 89 249 2.0
e 89 87 1.0
e 90 143 1.0
e 90 215 51.0
e 91 134 3.0
e 91 89 1.0
e 92 162 2.0
e 92 91 2.0
e 94 95 28.0
e 94 200 36.0
e 95 144 42.0
e 96 112 5.0
e 96 92 2.0
e 97 216 1.0
e 97 96 2.0
e 98 100 33.0
e 98 113 27.0
e 98 140 81.0
e 98 97 51.0
e 101 265 81.0
e 101 103 15.0
e 103 209 13.0
e 104 106 53.0
e 104 98 81.0
e 106 217 75.0
e 106 252 76.0
e 109 238 3.0
e 109 104 1.0
e 114 261 54.0
e 114 115 32.0
e 115 132 5.0
e 115 116 56.0
e 117 118 78.0
e 117 157 34.0
e 117 241 70.0
e 117 109 73.0
e 118 120 32.0
e 118 121 43.0
e 122 254 31.0
e 122 194 55.0
e 122 123 35.0
e 124 194 11.0
e 124 230 19.0
e 124 253 48.0
e 125 126 3.0
e 125 117 4.0
e 127 177 5.0
e 127 125 3.0
e 128 130 1.0
e 128 127 6.0
e 131 150 10.0
e 131 306 15.0
e 131 133 93.0
e 133 207 76.0
e 133 135 87.0
e 136 137 1.0
e 136 128 3.0
e 139 315 64.0
e 141 255 18.0
e 145 146 1.0
e 145 136 1.0
e 147 308 79.0
e 147 151 10.0
e 147 148 97.0
e 149 268 63.0
e 149 317 100.0
e 149 185 2.0
e 150 151 70.0
e 150 153 23.0
e 151 153 53.0
e 153 246 57.0
e 155 201 11.0
e 155 145 2.0
e 158 163 86.0
e 158 155 1.0
e 163 164 94.0
e 163 167 35.0
e 170 171 1.0
e 170 158 1.0
e 172 259 4.0
e 172 170 4.0
e 173 290 22.0
e 173 175 83.0
e 175 296 44.0
e 176 178 85.0
e 176 251 15.0
e 176 310 47.0
e 179 180 16.0
e 179 233 4.0
e 181 182 5.0
e 181 172 1.0
e 183 184 61.0
e 184 185 56.0
e 184 260 46.0
e 185 186 27.0
e 186 188 6.0
e 186 242 87.0
e 188 315 18.0
e 188 189 21.0
e 190 191 88.0
e 190 181 5.0
e 191 192 58.0
e 191 288 88.0
e 193 195 78.0
e 193 196 28.0
e 193 199 93.0
e 199 247 28.0
e 199 200 61.0
e 202 291 5.0
e 202 190 10.0
e 203 204 3.0
e 203 202 2.0
e 205 208 75.0
e 205 257 77.0
e 210 211 33.0
e 210 212 70.0
e 218 250 1.0
e 218 203 1.0
e 219 275 1.0
e 219 218 1.0
e 220 221 88.0
e 221 222 43.0
e 223 225 1.0
e 223 219 1.0
e 228 234 3.0
e 228 223 1.0
e 230 302 99.0
e 230 235 11.0
e 236 237 6.0
e 236 228 1.0
e 239 242 40.0
e 242 257 34.0
e 243 247 7.0
e 251 255 33.0
e 251 260 62.0
e 255 256 40.0
e 257 258 62.0
e 258 260 75.0
e 258 262 79.0
e 262 274 17.0
e 262 263 86.0
e 263 299 30.0
e 264 310 97.0
e 266 270 41.0
e 266 283 32.0
e 271 318 2.0
e 271 236 2.0
e 272 276 90.0
e 272 277 79.0
e 272 289 99.0
e 278 279 87.0
e 278 280 78.0
e 278 281 30.0
e 280 281 21.0
e 283 307 28.0
e 283 284 21.0
e 286 287 12.0
e 286 271 4.0
e 289 292 46.0
e 293 299 71.0
e 299 302 20.0
e 302 310 13.0
e 304 305 1.0
e 304 286 5.0
e 306 307 84.0
e 307 311 96.0
e 312 314 4.0
e 312 315 38.0
e 312 316 99.0
e 316 319 48.0
